22 100000
9 10756
91 11530
30 83376
10 2042
18 82910
71 68693
45 35043
93 64703
56 63335
18 11724
31 17622
53 25830
68 72232
42 69058
93 1620
2 86995
53 2193
50 57802
19 6410
9 90016
40 83639
48 89669
